use_ws_distance			= .true.
spinors				= .true.
!auto_projections		= .true.

num_wann			= 16
num_bands			= 18
num_iter			= 100
search_shells			= 20

write_hr			= .true.
iprint		 		= 3

!restart				= plot
!bands_plot			= true
!bands_num_points		= 100
!bands_plot_format		= gnuplot

!begin kpoint_path
!     G  0.0       0.0       0.0     K  0.333333  0.333333  0.0
!     K  0.333333  0.333333  0.0     M  0.5       0.0       0.0
!     M  0.5       0.0       0.0     G  0.0       0.0       0.0
!end kpoint_path

begin unit_cell_cart
      bohr
	8.22094664E+000  0.000000000000000E+000  0.000000000000000E+000
       -4.11047332E+000  7.119548633E+000  0.000000000000000E+000
        0.000000000000000E+000  0.000000000000000E+000  4.11047332E+001
end unit_cell_cart

begin atoms_cart
      angstrom
	Bi  2.1741365286  1.2534648842   9.9637479114
	Bi -0.0014834904  2.5095699780  11.6986520886
end atoms_cart

begin projections
      Bi: s, p
      Bi: s, p
end projections

select_projections: 1-16

mp_grid	= 8 8 1
begin kpoints
-0.5 -0.5 0.0
-0.5 -0.375 0.0
-0.5 -0.25 0.0
-0.5 -0.125 0.0
-0.5 0.0 0.0
-0.5 0.125 0.0
-0.5 0.25 0.0
-0.5 0.375 0.0
-0.375 -0.5 0.0
-0.375 -0.375 0.0
-0.375 -0.25 0.0
-0.375 -0.125 0.0
-0.375 0.0 0.0
-0.375 0.125 0.0
-0.375 0.25 0.0
-0.375 0.375 0.0
-0.25 -0.5 0.0
-0.25 -0.375 0.0
-0.25 -0.25 0.0
-0.25 -0.125 0.0
-0.25 0.0 0.0
-0.25 0.125 0.0
-0.25 0.25 0.0
-0.25 0.375 0.0
-0.125 -0.5 0.0
-0.125 -0.375 0.0
-0.125 -0.25 0.0
-0.125 -0.125 0.0
-0.125 0.0 0.0
-0.125 0.125 0.0
-0.125 0.25 0.0
-0.125 0.375 0.0
0.0 -0.5 0.0
0.0 -0.375 0.0
0.0 -0.25 0.0
0.0 -0.125 0.0
0.0 0.0 0.0
0.0 0.125 0.0
0.0 0.25 0.0
0.0 0.375 0.0
0.125 -0.5 0.0
0.125 -0.375 0.0
0.125 -0.25 0.0
0.125 -0.125 0.0
0.125 0.0 0.0
0.125 0.125 0.0
0.125 0.25 0.0
0.125 0.375 0.0
0.25 -0.5 0.0
0.25 -0.375 0.0
0.25 -0.25 0.0
0.25 -0.125 0.0
0.25 0.0 0.0
0.25 0.125 0.0
0.25 0.25 0.0
0.25 0.375 0.0
0.375 -0.5 0.0
0.375 -0.375 0.0
0.375 -0.25 0.0
0.375 -0.125 0.0
0.375 0.0 0.0
0.375 0.125 0.0
0.375 0.25 0.0
0.375 0.375 0.0
end kpoints
