&control
   calculation			= 'bands'
   restart_mode			= 'from_scratch'
   pseudo_dir			= '../pseudo/'
   outdir			= './bands_out/'
   prefix			= 'p_bands'
/

&system
   ibrav			= 12
   celldm(1)			= 6.19998503
   celldm(2)			= 12.0
   celldm(3)			= 4.0
   celldm(4)			= -0.5
   nat				= 16
   ntyp				= 1
   noncolin			= .true.
   lspinorb			= .true.
   starting_magnetization	= 0.01
   ecutwfc			= 50
   ecutrho			= 200
   occupations			= 'smearing'
   smearing			= 'gaussian'
   degauss			= 0.02
/

&electrons
   diagonalization		= 'david'
   conv_thr			= 1.0e-8
   mixing_beta			= 0.3
   startingpot			= 'file'
/

ATOMIC_SPECIES
P 30.973762 P_ONCV_PBE_FR-1.1.upf

ATOMIC_POSITIONS angstrom
P  1.6414296199 0.9486423219 10.0040213298 
P  0.000789928 1.8958649316 11.2469686702
P  0.0009841089000000025 3.789977293985727 10.0040213298 
P  -1.639655583 4.737199903685727 11.2469686702
P  -1.6394614021 6.631312266071454 10.0040213298 
P  -3.280101094 7.578534875771454 11.2469686702
P  -3.2799069130999996 9.47264723815718 10.0040213298 
P  -4.920546605 10.41986984785718 11.2469686702
P  -4.9203524241 12.313982210242907 10.0040213298 
P  -6.560992116 13.261204819942908 11.2469686702
P  -6.5607979351 15.155317182328634 10.0040213298 
P  -8.201437627 16.102539792028633 11.2469686702
P  -8.2012434461 17.99665215441436 10.0040213298 
P  -9.841883138 18.94387476411436 11.2469686702
P  -9.8416889571 20.83798712650009 10.0040213298 
P  -11.482328649000001 21.785209736200088 11.2469686702

K_POINTS tpiba_b
2
0.000 0.000 0.000 100
0.500 0.000 0.000 1
