&control
   calculation			= 'nscf'
   restart_mode			= 'from_scratch'
   pseudo_dir			= '../pseudo/'
   outdir			= './wan_out/'
   prefix			= 'p_wan'
   
/

&system
   ibrav			= 4
   celldm(1)			= 6.19998503
   celldm(3)			= 5.0
   nat				= 2
   ntyp				= 1
   nbnd				= 18
   noncolin			= .true.
   lspinorb			= .true.
   starting_magnetization	= 0.01
   ecutwfc			= 75
   ecutrho			= 300
   occupations			= 'fixed'
   nosym			= .true.
/

&electrons
   diagonalization		= 'david'
   conv_thr			= 1.0e-8
   mixing_beta			= 0.3
   startingpot			= 'file'
/

ATOMIC_SPECIES
P 30.973762 P_ONCV_PBE_FR-1.1.upf

ATOMIC_POSITIONS angstrom
P                1.6414296199        0.9486423219       10.0040213298
P                0.0007899280        1.8958649316       11.2469686702

K_POINTS crystal
64
-0.5 -0.5 0.0 1
-0.5 -0.375 0.0 1
-0.5 -0.25 0.0 1
-0.5 -0.125 0.0 1
-0.5 0.0 0.0 1
-0.5 0.125 0.0 1
-0.5 0.25 0.0 1
-0.5 0.375 0.0 1
-0.375 -0.5 0.0 1
-0.375 -0.375 0.0 1
-0.375 -0.25 0.0 1
-0.375 -0.125 0.0 1
-0.375 0.0 0.0 1
-0.375 0.125 0.0 1
-0.375 0.25 0.0 1
-0.375 0.375 0.0 1
-0.25 -0.5 0.0 1
-0.25 -0.375 0.0 1
-0.25 -0.25 0.0 1
-0.25 -0.125 0.0 1
-0.25 0.0 0.0 1
-0.25 0.125 0.0 1
-0.25 0.25 0.0 1
-0.25 0.375 0.0 1
-0.125 -0.5 0.0 1
-0.125 -0.375 0.0 1
-0.125 -0.25 0.0 1
-0.125 -0.125 0.0 1
-0.125 0.0 0.0 1
-0.125 0.125 0.0 1
-0.125 0.25 0.0 1
-0.125 0.375 0.0 1
0.0 -0.5 0.0 1
0.0 -0.375 0.0 1
0.0 -0.25 0.0 1
0.0 -0.125 0.0 1
0.0 0.0 0.0 1
0.0 0.125 0.0 1
0.0 0.25 0.0 1
0.0 0.375 0.0 1
0.125 -0.5 0.0 1
0.125 -0.375 0.0 1
0.125 -0.25 0.0 1
0.125 -0.125 0.0 1
0.125 0.0 0.0 1
0.125 0.125 0.0 1
0.125 0.25 0.0 1
0.125 0.375 0.0 1
0.25 -0.5 0.0 1
0.25 -0.375 0.0 1
0.25 -0.25 0.0 1
0.25 -0.125 0.0 1
0.25 0.0 0.0 1
0.25 0.125 0.0 1
0.25 0.25 0.0 1
0.25 0.375 0.0 1
0.375 -0.5 0.0 1
0.375 -0.375 0.0 1
0.375 -0.25 0.0 1
0.375 -0.125 0.0 1
0.375 0.0 0.0 1
0.375 0.125 0.0 1
0.375 0.25 0.0 1
0.375 0.375 0.0 1
