&control
   calculation			= 'nscf'
   restart_mode			= 'from_scratch'
   pseudo_dir			= '../pseudo/'
   outdir			= './wan_out/'
   prefix			= 'bi_wan'
   
/

&system
   ibrav			= 4
   celldm(1)			= 8.22094664
   celldm(3)			= 5.0
   nat				= 2
   ntyp				= 1
   nbnd				= 18
   noncolin			= .true.
   lspinorb			= .true.
   starting_magnetization	= 0.01
   ecutwfc			= 75
   ecutrho			= 300
   occupations			= 'fixed'
   nosym			= .true.
/

&electrons
   diagonalization		= 'david'
   conv_thr			= 1.0e-8
   mixing_beta			= 0.3
   startingpot			= 'file'
/

ATOMIC_SPECIES
Bi 208.9804 Bi_MT_PBE.UPF

ATOMIC_POSITIONS angstrom
Bi               2.1741365286        1.2534648842        9.9637479114
Bi              -0.0014834904        2.5095699780       11.6986520886

K_POINTS crystal
64
-0.5 -0.5 0.0 1
-0.5 -0.375 0.0 1
-0.5 -0.25 0.0 1
-0.5 -0.125 0.0 1
-0.5 0.0 0.0 1
-0.5 0.125 0.0 1
-0.5 0.25 0.0 1
-0.5 0.375 0.0 1
-0.375 -0.5 0.0 1
-0.375 -0.375 0.0 1
-0.375 -0.25 0.0 1
-0.375 -0.125 0.0 1
-0.375 0.0 0.0 1
-0.375 0.125 0.0 1
-0.375 0.25 0.0 1
-0.375 0.375 0.0 1
-0.25 -0.5 0.0 1
-0.25 -0.375 0.0 1
-0.25 -0.25 0.0 1
-0.25 -0.125 0.0 1
-0.25 0.0 0.0 1
-0.25 0.125 0.0 1
-0.25 0.25 0.0 1
-0.25 0.375 0.0 1
-0.125 -0.5 0.0 1
-0.125 -0.375 0.0 1
-0.125 -0.25 0.0 1
-0.125 -0.125 0.0 1
-0.125 0.0 0.0 1
-0.125 0.125 0.0 1
-0.125 0.25 0.0 1
-0.125 0.375 0.0 1
0.0 -0.5 0.0 1
0.0 -0.375 0.0 1
0.0 -0.25 0.0 1
0.0 -0.125 0.0 1
0.0 0.0 0.0 1
0.0 0.125 0.0 1
0.0 0.25 0.0 1
0.0 0.375 0.0 1
0.125 -0.5 0.0 1
0.125 -0.375 0.0 1
0.125 -0.25 0.0 1
0.125 -0.125 0.0 1
0.125 0.0 0.0 1
0.125 0.125 0.0 1
0.125 0.25 0.0 1
0.125 0.375 0.0 1
0.25 -0.5 0.0 1
0.25 -0.375 0.0 1
0.25 -0.25 0.0 1
0.25 -0.125 0.0 1
0.25 0.0 0.0 1
0.25 0.125 0.0 1
0.25 0.25 0.0 1
0.25 0.375 0.0 1
0.375 -0.5 0.0 1
0.375 -0.375 0.0 1
0.375 -0.25 0.0 1
0.375 -0.125 0.0 1
0.375 0.0 0.0 1
0.375 0.125 0.0 1
0.375 0.25 0.0 1
0.375 0.375 0.0 1
