&control
   calculation			= 'nscf'
   restart_mode			= 'from_scratch'
   pseudo_dir			= '../pseudo/'
   outdir			= './loc_out/'
   prefix			= 'bi_loc'
   
/

&system
   ibrav			= 12
   celldm(1)			= 8.22094664
   celldm(2)			= 12.0
   celldm(3)			= 4.0
   celldm(4)			= -0.5
   nat				= 16
   ntyp				= 1
   noncolin			= .true.
   lspinorb			= .true.
   starting_magnetization(1)	= 0.01
   ecutwfc			= 35
   ecutrho			= 140
   occupations			= 'smearing'
   smearing			= 'gaussian'
   degauss			= 0.02
/

&electrons
   diagonalization		= 'david'
   conv_thr			= 1.0e-8
   mixing_beta			= 0.3
   startingpot			= 'file'
/

ATOMIC_SPECIES
Bi 208.9804 Bi_MT_PBE.UPF

ATOMIC_POSITIONS angstrom
Bi  2.1741365286 1.2534648842 9.9637479114 
Bi  -0.0014834904 2.509569978 11.6986520886
Bi  -0.0010324349499999386 5.020968044096226 9.9637479114 
Bi  -2.17665245395 6.277073137896226 11.6986520886
Bi  -2.1762013985 8.788471203992453 9.9637479114 
Bi  -4.3518214175 10.044576297792453 11.6986520886
Bi  -4.35137036205 12.555974363888676 9.9637479114 
Bi  -6.52699038105 13.812079457688677 11.6986520886
Bi  -6.5265393256 16.323477523784906 9.9637479114 
Bi  -8.7021593446 17.579582617584904 11.6986520886
Bi  -8.70170828915 20.090980683681128 9.9637479114 
Bi  -10.87732830815 21.347085777481126 11.6986520886
Bi  -10.8768772527 23.858483843577353 9.9637479114 
Bi  -13.0524972717 25.114588937377356 11.6986520886
Bi  -13.05204621625 27.62598700347358 9.9637479114 
Bi  -15.22766623525 28.882092097273578 11.6986520886

K_POINTS tpiba
1
-0.11 0.0 0.0 1.0
